certificates/rado_a13_c64_N25.cnf
c Rad2 upper bound instance: x1 + 13*x2 - x3 = 64, interval [1,25]
p cnf 25 94
1 2 5 0
-1 -2 -5 0
1 6 15 0
-1 -6 -15 0
2 3 5 0
-2 -3 -5 0
2 6 16 0
-2 -6 -16 0
3 4 5 0
-3 -4 -5 0
3 6 17 0
-3 -6 -17 0
4 5 0
-4 -5 0
4 6 18 0
-4 -6 -18 0
5 6 0
-5 -6 0
5 6 19 0
-5 -6 -19 0
5 6 7 0
-5 -6 -7 0
6 20 0
-6 -20 0
5 7 8 0
-5 -7 -8 0
6 7 21 0
-6 -7 -21 0
5 8 9 0
-5 -8 -9 0
6 8 22 0
-6 -8 -22 0
5 9 10 0
-5 -9 -10 0
6 9 23 0
-6 -9 -23 0
5 10 11 0
-5 -10 -11 0
6 10 24 0
-6 -10 -24 0
5 11 12 0
-5 -11 -12 0
6 11 25 0
-6 -11 -25 0
5 12 13 0
-5 -12 -13 0
1 4 13 0
-1 -4 -13 0
5 13 14 0
-5 -13 -14 0
2 4 14 0
-2 -4 -14 0
5 14 15 0
-5 -14 -15 0
3 4 15 0
-3 -4 -15 0
5 15 16 0
-5 -15 -16 0
4 16 0
-4 -16 0
5 16 17 0
-5 -16 -17 0
4 5 17 0
-4 -5 -17 0
5 17 18 0
-5 -17 -18 0
5 18 19 0
-5 -18 -19 0
4 7 19 0
-4 -7 -19 0
5 19 20 0
-5 -19 -20 0
4 8 20 0
-4 -8 -20 0
5 20 21 0
-5 -20 -21 0
4 9 21 0
-4 -9 -21 0
5 21 22 0
-5 -21 -22 0
4 10 22 0
-4 -10 -22 0
5 22 23 0
-5 -22 -23 0
4 11 23 0
-4 -11 -23 0
5 23 24 0
-5 -23 -24 0
4 12 24 0
-4 -12 -24 0
5 24 25 0
-5 -24 -25 0
4 13 25 0
-4 -13 -25 0
