certificates/rado_a13_c64_N25.drat
-24 -25 0
d -24 -5 -25 0
12 13 24 0
-5 24 0
-25 0
24 0
-5 0
4 0
6 0
-16 0
-12 0
-18 0
-20 0
-10 0
17 0
15 0
13 0
11 0
19 0
21 0
9 0
-3 0
-1 0
-23 0
-7 0
0
